0
37
0
50
52
59
75
42
77
32
69
30
43
38
0
21
54
47
188
0
0
37
104
26
27
73
65
37
40
131
25
121
0
18
90
42
43
31
34
29
0
41
23
0
81
42
0
141
28
101
54
34
0
23
32
77
0
77
49
81
44
78
59
34
53
32
37
24
66
25
58
0
0
53
52
32
0
39
0
34
37
34
20
0
34
37
44
65
63
29
51
149
0
33
78
135
45
28
34
21
